\* GAP-pulp *\
Minimize
cost: 10 x_0 + 11 x_1 + 26 x_10 + 28 x_11 + 30 x_12 + 32 x_13 + 34 x_14
 + 36 x_15 + 60 x_16 + 64 x_17 + 68 x_18 + 72 x_19 + 12 x_2 + 76 x_20
 + 80 x_21 + 84 x_22 + 88 x_23 + 13 x_3 + 14 x_4 + 15 x_5 + 16 x_6 + 17 x_7
 + 22 x_8 + 24 x_9
Subject To
Cas0: x_0 + x_16 + x_8 = 1
Cas1: x_1 + x_17 + x_9 = 1
Cas2: x_10 + x_18 + x_2 = 1
Cas3: x_11 + x_19 + x_3 = 1
Cas4: x_12 + x_20 + x_4 = 1
Cas5: x_13 + x_21 + x_5 = 1
Cas6: x_14 + x_22 + x_6 = 1
Cas7: x_15 + x_23 + x_7 = 1
Ckn0: 48 x_0 + 47 x_1 + 46 x_2 + 45 x_3 + 44 x_4 + 43 x_5 + 42 x_6 + 41 x_7
 <= 160
Ckn1: 36 x_10 + 35 x_11 + 34 x_12 + 33 x_13 + 32 x_14 + 31 x_15 + 38 x_8
 + 37 x_9 <= 90
Ckn2: 28 x_16 + 27 x_17 + 26 x_18 + 25 x_19 + 24 x_20 + 23 x_21 + 22 x_22
 + 21 x_23 <= 70
Bounds
 x_0 <= 1
 x_1 <= 1
 x_10 <= 1
 x_11 <= 1
 x_12 <= 1
 x_13 <= 1
 x_14 <= 1
 x_15 <= 1
 x_16 <= 1
 x_17 <= 1
 x_18 <= 1
 x_19 <= 1
 x_2 <= 1
 x_20 <= 1
 x_21 <= 1
 x_22 <= 1
 x_23 <= 1
 x_3 <= 1
 x_4 <= 1
 x_5 <= 1
 x_6 <= 1
 x_7 <= 1
 x_8 <= 1
 x_9 <= 1
End
